contSpaceCreator/testApp/max.sol
# Objective value = 5
num100000 0
num200000 1
num300000 0
num400000 0
num500000 0
num600000 0
num700000 0
num800000 0
num900000 0
num 1
num_0 0
num_1 1
num_2 0
num_3 0
num_4 0
num_5 0
num_6 0
num_7 0
num_8 0
energy 50
